-469.0 8.0 0.0 10.0 6.0 5.0 4.0 1.0 9.0 8.0 2.0 0.0 6.0 6.0 6.0 9.0 8.0 6.0 5.0 2.0 10.0 8.0 6.0 4.0 0.0 8.0 2.0 0.0 0.0 5.0 7.0 7.0 8.0 9.0 7.0 8.0 5.0 9.0 9.0 10.0 2.0 7.0 9.0 5.0 1.0 10.0 6.0 5.0 4.0 7.0 0.0 7.0 3.0 7.0 7.0 6.0 7.0 10.0 4.0 0.0 1.0 1.0 3.0 7.0 10.0 7.0 0.0 9.0 0.0 1.0 10.0 0.0 1.0 5.0 1.0 5.0 2.0 0.0 6.0 6.0 2.0 9.0 8.0 3.0 2.0 1.0 4.0 0.0 3.0 4.0 9.0 7.0 5.0 7.0 
8.0 -497.0 1.0 9.0 9.0 9.0 4.0 2.0 6.0 3.0 7.0 5.0 7.0 5.0 6.0 8.0 6.0 9.0 4.0 8.0 8.0 8.0 2.0 6.0 3.0 8.0 10.0 7.0 9.0 10.0 7.0 7.0 6.0 10.0 3.0 3.0 1.0 2.0 9.0 6.0 4.0 1.0 8.0 4.0 10.0 8.0 9.0 4.0 9.0 9.0 9.0 4.0 6.0 7.0 4.0 10.0 9.0 8.0 1.0 2.0 5.0 1.0 1.0 2.0 3.0 1.0 1.0 10.0 7.0 3.0 9.0 5.0 9.0 3.0 4.0 8.0 2.0 2.0 6.0 10.0 2.0 10.0 3.0 4.0 3.0 7.0 7.0 2.0 0.0 0.0 0.0 0.0 0.0 0.0 
0.0 1.0 -511.0 1.0 6.0 5.0 5.0 6.0 3.0 0.0 5.0 9.0 7.0 0.0 1.0 10.0 3.0 5.0 9.0 6.0 4.0 2.0 1.0 5.0 3.0 10.0 8.0 8.0 9.0 10.0 0.0 3.0 0.0 3.0 8.0 2.0 7.0 1.0 4.0 10.0 7.0 3.0 5.0 7.0 9.0 3.0 0.0 7.0 5.0 8.0 10.0 3.0 5.0 9.0 3.0 9.0 9.0 2.0 4.0 6.0 10.0 6.0 9.0 6.0 10.0 6.0 0.0 8.0 10.0 9.0 10.0 10.0 3.0 1.0 8.0 7.0 10.0 5.0 10.0 2.0 6.0 5.0 7.0 7.0 7.0 1.0 8.0 7.0 9.0 1.0 8.0 6.0 3.0 2.0 
10.0 9.0 1.0 -424.0 5.0 8.0 8.0 9.0 1.0 1.0 8.0 0.0 0.0 4.0 8.0 5.0 3.0 2.0 10.0 9.0 8.0 8.0 1.0 6.0 9.0 10.0 7.0 4.0 3.0 1.0 4.0 6.0 2.0 2.0 2.0 1.0 6.0 2.0 6.0 2.0 1.0 5.0 5.0 2.0 4.0 1.0 1.0 1.0 2.0 6.0 5.0 6.0 10.0 0.0 10.0 2.0 6.0 1.0 0.0 0.0 3.0 5.0 2.0 7.0 3.0 7.0 2.0 2.0 8.0 9.0 5.0 5.0 7.0 5.0 4.0 1.0 0.0 9.0 10.0 9.0 3.0 5.0 0.0 2.0 6.0 1.0 10.0 2.0 2.0 9.0 7.0 2.0 3.0 10.0 
6.0 9.0 6.0 5.0 -440.0 6.0 7.0 9.0 2.0 4.0 3.0 3.0 5.0 3.0 4.0 1.0 9.0 0.0 6.0 7.0 6.0 2.0 3.0 7.0 6.0 8.0 1.0 8.0 10.0 7.0 0.0 7.0 0.0 1.0 6.0 8.0 7.0 6.0 2.0 8.0 5.0 5.0 1.0 2.0 7.0 10.0 4.0 6.0 0.0 3.0 6.0 0.0 2.0 2.0 1.0 5.0 8.0 9.0 1.0 10.0 1.0 7.0 5.0 1.0 3.0 8.0 2.0 1.0 0.0 5.0 8.0 9.0 8.0 2.0 5.0 3.0 1.0 4.0 6.0 3.0 5.0 2.0 9.0 5.0 0.0 2.0 5.0 10.0 10.0 3.0 1.0 7.0 6.0 8.0 
5.0 9.0 5.0 8.0 6.0 -529.0 5.0 9.0 7.0 8.0 3.0 4.0 9.0 9.0 1.0 6.0 9.0 6.0 3.0 8.0 6.0 5.0 7.0 5.0 7.0 6.0 0.0 5.0 3.0 5.0 7.0 8.0 5.0 3.0 8.0 1.0 3.0 0.0 8.0 4.0 10.0 8.0 3.0 8.0 6.0 3.0 7.0 3.0 10.0 5.0 5.0 3.0 6.0 3.0 5.0 4.0 7.0 4.0 8.0 5.0 6.0 3.0 5.0 8.0 6.0 9.0 8.0 6.0 10.0 7.0 10.0 7.0 0.0 1.0 4.0 7.0 0.0 7.0 5.0 7.0 9.0 5.0 0.0 2.0 4.0 10.0 4.0 8.0 10.0 8.0 4.0 5.0 8.0 7.0 
4.0 4.0 5.0 8.0 7.0 5.0 -517.0 10.0 10.0 2.0 3.0 3.0 2.0 3.0 1.0 2.0 3.0 3.0 3.0 1.0 6.0 3.0 5.0 4.0 3.0 10.0 9.0 7.0 1.0 9.0 1.0 10.0 4.0 8.0 8.0 9.0 10.0 3.0 10.0 5.0 6.0 8.0 2.0 8.0 2.0 5.0 8.0 6.0 0.0 8.0 8.0 10.0 8.0 7.0 4.0 8.0 6.0 8.0 0.0 6.0 9.0 8.0 1.0 10.0 8.0 8.0 5.0 0.0 2.0 6.0 8.0 1.0 5.0 7.0 3.0 10.0 4.0 3.0 2.0 5.0 2.0 10.0 4.0 5.0 2.0 8.0 7.0 7.0 10.0 10.0 5.0 3.0 9.0 8.0 
1.0 2.0 6.0 9.0 9.0 9.0 10.0 -486.0 3.0 1.0 2.0 0.0 2.0 9.0 6.0 2.0 8.0 10.0 1.0 10.0 7.0 7.0 6.0 0.0 1.0 9.0 8.0 6.0 2.0 4.0 10.0 7.0 8.0 1.0 6.0 7.0 3.0 0.0 5.0 2.0 4.0 9.0 1.0 4.0 3.0 8.0 9.0 0.0 2.0 4.0 8.0 3.0 4.0 8.0 10.0 3.0 7.0 10.0 8.0 0.0 5.0 5.0 8.0 6.0 5.0 8.0 7.0 10.0 7.0 4.0 3.0 5.0 10.0 10.0 10.0 1.0 9.0 4.0 0.0 2.0 4.0 4.0 7.0 6.0 8.0 10.0 6.0 0.0 2.0 0.0 6.0 5.0 5.0 0.0 
9.0 6.0 3.0 1.0 2.0 7.0 10.0 3.0 -479.0 2.0 7.0 7.0 6.0 4.0 9.0 4.0 3.0 10.0 10.0 7.0 8.0 8.0 7.0 3.0 3.0 7.0 10.0 5.0 8.0 10.0 2.0 1.0 1.0 2.0 6.0 7.0 6.0 3.0 1.0 1.0 5.0 10.0 1.0 2.0 6.0 4.0 8.0 8.0 1.0 5.0 1.0 7.0 5.0 9.0 5.0 1.0 2.0 1.0 6.0 10.0 1.0 7.0 6.0 7.0 4.0 7.0 10.0 8.0 6.0 7.0 8.0 6.0 9.0 1.0 4.0 9.0 4.0 9.0 0.0 2.0 6.0 7.0 0.0 6.0 4.0 0.0 8.0 4.0 5.0 10.0 3.0 2.0 2.0 1.0 
8.0 3.0 0.0 1.0 4.0 8.0 2.0 1.0 2.0 -416.0 9.0 8.0 6.0 5.0 4.0 10.0 4.0 3.0 3.0 0.0 1.0 8.0 2.0 7.0 9.0 3.0 4.0 5.0 6.0 6.0 3.0 9.0 5.0 4.0 2.0 9.0 8.0 9.0 2.0 6.0 0.0 6.0 6.0 10.0 10.0 7.0 2.0 2.0 0.0 8.0 2.0 6.0 4.0 4.0 5.0 5.0 1.0 8.0 7.0 2.0 7.0 0.0 5.0 1.0 9.0 0.0 1.0 5.0 10.0 3.0 8.0 3.0 9.0 5.0 4.0 1.0 1.0 2.0 4.0 3.0 2.0 4.0 2.0 1.0 0.0 9.0 0.0 10.0 3.0 3.0 4.0 2.0 7.0 4.0 
2.0 7.0 5.0 8.0 3.0 3.0 3.0 2.0 7.0 9.0 -461.0 1.0 2.0 5.0 0.0 10.0 1.0 2.0 4.0 8.0 8.0 4.0 7.0 5.0 8.0 10.0 7.0 1.0 6.0 6.0 1.0 5.0 7.0 10.0 7.0 10.0 10.0 2.0 7.0 4.0 0.0 4.0 3.0 1.0 10.0 2.0 6.0 0.0 2.0 0.0 7.0 2.0 4.0 5.0 2.0 8.0 10.0 6.0 10.0 4.0 3.0 3.0 5.0 4.0 6.0 2.0 4.0 9.0 2.0 3.0 5.0 10.0 4.0 2.0 5.0 9.0 8.0 8.0 9.0 0.0 8.0 4.0 8.0 5.0 4.0 7.0 3.0 2.0 6.0 1.0 5.0 5.0 3.0 6.0 
0.0 5.0 9.0 0.0 3.0 4.0 3.0 0.0 7.0 8.0 1.0 -428.0 5.0 1.0 7.0 10.0 9.0 3.0 7.0 3.0 8.0 4.0 7.0 5.0 9.0 8.0 4.0 4.0 8.0 5.0 0.0 1.0 9.0 5.0 4.0 9.0 0.0 4.0 8.0 8.0 7.0 3.0 1.0 8.0 3.0 5.0 3.0 3.0 0.0 0.0 2.0 2.0 2.0 7.0 1.0 5.0 8.0 0.0 3.0 1.0 0.0 6.0 4.0 10.0 8.0 7.0 3.0 0.0 0.0 10.0 5.0 6.0 5.0 5.0 4.0 2.0 6.0 2.0 10.0 1.0 2.0 7.0 7.0 5.0 5.0 10.0 5.0 9.0 6.0 2.0 3.0 6.0 5.0 3.0 
6.0 7.0 7.0 0.0 5.0 9.0 2.0 2.0 6.0 6.0 2.0 5.0 -481.0 1.0 8.0 5.0 9.0 9.0 9.0 2.0 10.0 7.0 6.0 3.0 5.0 10.0 6.0 7.0 4.0 9.0 3.0 1.0 5.0 6.0 5.0 5.0 8.0 8.0 2.0 10.0 4.0 10.0 8.0 7.0 10.0 3.0 1.0 7.0 5.0 6.0 6.0 3.0 1.0 10.0 7.0 6.0 5.0 7.0 6.0 7.0 8.0 0.0 3.0 6.0 4.0 5.0 6.0 0.0 0.0 9.0 2.0 3.0 5.0 7.0 8.0 3.0 8.0 3.0 0.0 1.0 8.0 2.0 1.0 9.0 4.0 6.0 8.0 1.0 4.0 1.0 10.0 1.0 5.0 1.0 
6.0 5.0 0.0 4.0 3.0 9.0 3.0 9.0 4.0 5.0 5.0 1.0 1.0 -433.0 0.0 4.0 8.0 3.0 1.0 5.0 4.0 1.0 10.0 1.0 0.0 0.0 4.0 0.0 8.0 6.0 2.0 10.0 6.0 9.0 8.0 6.0 9.0 9.0 4.0 8.0 1.0 4.0 9.0 5.0 9.0 9.0 7.0 5.0 7.0 9.0 4.0 7.0 2.0 2.0 3.0 0.0 1.0 0.0 2.0 9.0 6.0 4.0 6.0 6.0 0.0 1.0 0.0 9.0 8.0 2.0 6.0 10.0 3.0 8.0 5.0 1.0 4.0 3.0 10.0 5.0 9.0 2.0 7.0 1.0 5.0 1.0 8.0 7.0 1.0 7.0 9.0 1.0 2.0 0.0 
6.0 6.0 1.0 8.0 4.0 1.0 1.0 6.0 9.0 4.0 0.0 7.0 8.0 0.0 -516.0 10.0 0.0 8.0 7.0 1.0 1.0 10.0 0.0 8.0 10.0 10.0 2.0 0.0 6.0 10.0 9.0 8.0 9.0 5.0 8.0 10.0 4.0 9.0 4.0 8.0 9.0 0.0 4.0 2.0 10.0 1.0 1.0 10.0 4.0 4.0 8.0 9.0 4.0 2.0 3.0 7.0 4.0 5.0 8.0 7.0 4.0 9.0 8.0 8.0 6.0 10.0 8.0 2.0 5.0 5.0 6.0 9.0 10.0 4.0 4.0 0.0 10.0 0.0 7.0 6.0 8.0 4.0 0.0 9.0 6.0 7.0 3.0 3.0 6.0 2.0 10.0 8.0 0.0 9.0 
9.0 8.0 10.0 5.0 1.0 6.0 2.0 2.0 4.0 10.0 10.0 10.0 5.0 4.0 10.0 -478.0 9.0 9.0 5.0 2.0 3.0 5.0 7.0 3.0 9.0 8.0 7.0 7.0 10.0 10.0 4.0 9.0 9.0 3.0 1.0 0.0 10.0 0.0 9.0 8.0 4.0 8.0 8.0 0.0 9.0 3.0 5.0 7.0 3.0 7.0 10.0 8.0 5.0 5.0 5.0 0.0 9.0 1.0 2.0 3.0 0.0 5.0 1.0 3.0 6.0 9.0 0.0 6.0 3.0 0.0 2.0 4.0 7.0 4.0 2.0 0.0 0.0 6.0 9.0 4.0 0.0 1.0 4.0 0.0 4.0 4.0 9.0 9.0 4.0 7.0 6.0 3.0 1.0 10.0 
8.0 6.0 3.0 3.0 9.0 9.0 3.0 8.0 3.0 4.0 1.0 9.0 9.0 8.0 0.0 9.0 -478.0 5.0 8.0 3.0 7.0 9.0 10.0 2.0 6.0 1.0 1.0 4.0 0.0 8.0 9.0 2.0 10.0 8.0 3.0 6.0 8.0 8.0 2.0 5.0 0.0 9.0 7.0 0.0 0.0 5.0 1.0 8.0 7.0 9.0 1.0 2.0 4.0 2.0 10.0 9.0 2.0 9.0 3.0 4.0 3.0 6.0 1.0 10.0 1.0 10.0 4.0 0.0 8.0 5.0 4.0 7.0 0.0 9.0 4.0 3.0 5.0 0.0 7.0 5.0 4.0 6.0 6.0 9.0 8.0 3.0 3.0 2.0 8.0 10.0 9.0 2.0 1.0 6.0 
6.0 9.0 5.0 2.0 0.0 6.0 3.0 10.0 10.0 3.0 2.0 3.0 9.0 3.0 8.0 9.0 5.0 -480.0 2.0 4.0 2.0 2.0 6.0 3.0 8.0 0.0 6.0 3.0 8.0 4.0 3.0 8.0 7.0 3.0 5.0 2.0 7.0 9.0 10.0 1.0 8.0 0.0 3.0 8.0 5.0 9.0 7.0 8.0 2.0 10.0 7.0 1.0 4.0 7.0 6.0 8.0 4.0 0.0 2.0 4.0 9.0 6.0 4.0 0.0 3.0 5.0 9.0 7.0 5.0 7.0 9.0 3.0 9.0 9.0 7.0 2.0 2.0 1.0 3.0 6.0 4.0 6.0 1.0 0.0 2.0 9.0 10.0 5.0 6.0 4.0 5.0 10.0 8.0 5.0 
5.0 4.0 9.0 10.0 6.0 3.0 3.0 1.0 10.0 3.0 4.0 7.0 9.0 1.0 7.0 5.0 8.0 2.0 -463.0 4.0 4.0 4.0 6.0 9.0 8.0 9.0 9.0 0.0 5.0 7.0 3.0 10.0 2.0 5.0 6.0 5.0 1.0 8.0 0.0 7.0 5.0 2.0 3.0 1.0 5.0 2.0 4.0 5.0 2.0 2.0 10.0 10.0 4.0 10.0 9.0 5.0 1.0 5.0 10.0 5.0 6.0 3.0 5.0 1.0 7.0 5.0 4.0 8.0 6.0 5.0 10.0 3.0 10.0 6.0 3.0 6.0 1.0 5.0 3.0 6.0 1.0 7.0 8.0 2.0 3.0 6.0 1.0 3.0 4.0 5.0 3.0 2.0 6.0 0.0 
2.0 8.0 6.0 9.0 7.0 8.0 1.0 10.0 7.0 0.0 8.0 3.0 2.0 5.0 1.0 2.0 3.0 4.0 4.0 -462.0 5.0 7.0 8.0 5.0 8.0 2.0 8.0 1.0 9.0 6.0 9.0 4.0 0.0 2.0 1.0 9.0 4.0 1.0 2.0 3.0 9.0 2.0 5.0 7.0 8.0 2.0 0.0 9.0 5.0 7.0 10.0 1.0 5.0 2.0 6.0 5.0 10.0 4.0 2.0 8.0 6.0 4.0 0.0 2.0 10.0 4.0 9.0 9.0 7.0 6.0 7.0 2.0 8.0 3.0 0.0 9.0 4.0 3.0 7.0 9.0 3.0 4.0 10.0 2.0 0.0 7.0 4.0 10.0 2.0 3.0 6.0 2.0 3.0 6.0 
10.0 8.0 4.0 8.0 6.0 6.0 6.0 7.0 8.0 1.0 8.0 8.0 10.0 4.0 1.0 3.0 7.0 2.0 4.0 5.0 -457.0 6.0 9.0 7.0 5.0 0.0 7.0 5.0 7.0 1.0 0.0 5.0 6.0 3.0 7.0 1.0 2.0 3.0 5.0 9.0 10.0 9.0 1.0 7.0 8.0 5.0 7.0 3.0 9.0 4.0 9.0 8.0 1.0 1.0 6.0 2.0 2.0 2.0 0.0 0.0 6.0 3.0 5.0 0.0 8.0 8.0 0.0 10.0 6.0 8.0 4.0 7.0 6.0 8.0 4.0 6.0 0.0 4.0 0.0 9.0 4.0 1.0 7.0 7.0 8.0 1.0 3.0 8.0 0.0 7.0 1.0 0.0 7.0 3.0 
8.0 8.0 2.0 8.0 2.0 5.0 3.0 7.0 8.0 8.0 4.0 4.0 7.0 1.0 10.0 5.0 9.0 2.0 4.0 7.0 6.0 -468.0 4.0 10.0 4.0 10.0 3.0 2.0 1.0 8.0 5.0 4.0 10.0 3.0 7.0 10.0 6.0 0.0 10.0 4.0 6.0 6.0 8.0 9.0 4.0 4.0 4.0 0.0 10.0 9.0 3.0 4.0 6.0 10.0 10.0 7.0 0.0 0.0 5.0 1.0 2.0 9.0 0.0 4.0 4.0 6.0 5.0 8.0 3.0 10.0 5.0 4.0 5.0 0.0 5.0 3.0 0.0 1.0 1.0 2.0 2.0 6.0 1.0 6.0 3.0 6.0 1.0 2.0 4.0 6.0 1.0 8.0 10.0 10.0 
6.0 2.0 1.0 1.0 3.0 7.0 5.0 6.0 7.0 2.0 7.0 7.0 6.0 10.0 0.0 7.0 10.0 6.0 6.0 8.0 9.0 4.0 -478.0 4.0 4.0 8.0 5.0 9.0 3.0 1.0 0.0 7.0 9.0 2.0 4.0 0.0 9.0 0.0 4.0 6.0 10.0 3.0 7.0 10.0 9.0 1.0 9.0 9.0 3.0 0.0 9.0 10.0 4.0 9.0 7.0 1.0 9.0 6.0 2.0 2.0 6.0 0.0 8.0 4.0 0.0 0.0 6.0 7.0 3.0 10.0 3.0 5.0 4.0 6.0 4.0 8.0 7.0 0.0 2.0 0.0 3.0 7.0 9.0 7.0 10.0 7.0 6.0 8.0 2.0 0.0 7.0 4.0 10.0 0.0 
4.0 6.0 5.0 6.0 7.0 5.0 4.0 0.0 3.0 7.0 5.0 5.0 3.0 1.0 8.0 3.0 2.0 3.0 9.0 5.0 7.0 10.0 4.0 -479.0 7.0 9.0 4.0 0.0 3.0 7.0 6.0 8.0 1.0 1.0 5.0 7.0 4.0 3.0 1.0 7.0 7.0 9.0 10.0 5.0 0.0 6.0 0.0 7.0 8.0 2.0 6.0 10.0 6.0 9.0 6.0 2.0 0.0 6.0 6.0 3.0 6.0 8.0 4.0 0.0 7.0 0.0 10.0 10.0 7.0 1.0 7.0 3.0 10.0 9.0 10.0 3.0 7.0 3.0 10.0 7.0 10.0 3.0 2.0 8.0 7.0 4.0 0.0 6.0 2.0 4.0 3.0 4.0 2.0 9.0 
0.0 3.0 3.0 9.0 6.0 7.0 3.0 1.0 3.0 9.0 8.0 9.0 5.0 0.0 10.0 9.0 6.0 8.0 8.0 8.0 5.0 4.0 4.0 7.0 -558.0 10.0 5.0 10.0 3.0 6.0 9.0 10.0 9.0 7.0 10.0 6.0 6.0 5.0 7.0 9.0 0.0 2.0 8.0 10.0 9.0 6.0 6.0 3.0 9.0 9.0 2.0 3.0 10.0 8.0 3.0 1.0 4.0 1.0 4.0 0.0 5.0 1.0 10.0 8.0 7.0 8.0 5.0 8.0 10.0 6.0 10.0 3.0 5.0 10.0 6.0 7.0 9.0 5.0 9.0 10.0 4.0 7.0 9.0 2.0 6.0 8.0 9.0 4.0 6.0 4.0 8.0 2.0 2.0 0.0 
8.0 8.0 10.0 10.0 8.0 6.0 10.0 9.0 7.0 3.0 10.0 8.0 10.0 0.0 10.0 8.0 1.0 0.0 9.0 2.0 0.0 10.0 8.0 9.0 10.0 -508.0 2.0 4.0 1.0 10.0 8.0 7.0 3.0 7.0 0.0 3.0 0.0 0.0 9.0 0.0 3.0 2.0 2.0 4.0 4.0 9.0 10.0 10.0 7.0 8.0 3.0 1.0 2.0 10.0 9.0 1.0 5.0 9.0 2.0 5.0 6.0 3.0 10.0 4.0 2.0 8.0 2.0 10.0 4.0 6.0 4.0 0.0 6.0 10.0 8.0 6.0 7.0 1.0 7.0 1.0 9.0 2.0 10.0 3.0 2.0 1.0 6.0 1.0 5.0 10.0 0.0 3.0 7.0 10.0 
2.0 10.0 8.0 7.0 1.0 0.0 9.0 8.0 10.0 4.0 7.0 4.0 6.0 4.0 2.0 7.0 1.0 6.0 9.0 8.0 7.0 3.0 5.0 4.0 5.0 2.0 -451.0 1.0 6.0 0.0 1.0 3.0 1.0 7.0 7.0 8.0 8.0 1.0 1.0 4.0 3.0 6.0 0.0 1.0 3.0 6.0 3.0 7.0 10.0 1.0 7.0 0.0 3.0 1.0 7.0 4.0 5.0 6.0 6.0 0.0 2.0 9.0 0.0 4.0 9.0 10.0 4.0 2.0 8.0 10.0 8.0 1.0 9.0 4.0 1.0 6.0 5.0 8.0 3.0 10.0 1.0 8.0 9.0 4.0 3.0 5.0 0.0 5.0 9.0 0.0 10.0 0.0 10.0 8.0 
0.0 7.0 8.0 4.0 8.0 5.0 7.0 6.0 5.0 5.0 1.0 4.0 7.0 0.0 0.0 7.0 4.0 3.0 0.0 1.0 5.0 2.0 9.0 0.0 10.0 4.0 1.0 -480.0 7.0 7.0 3.0 8.0 5.0 10.0 8.0 3.0 3.0 1.0 3.0 6.0 5.0 10.0 10.0 8.0 10.0 5.0 4.0 4.0 1.0 9.0 0.0 2.0 6.0 10.0 8.0 5.0 2.0 10.0 6.0 1.0 7.0 10.0 6.0 4.0 10.0 5.0 6.0 7.0 1.0 9.0 8.0 5.0 8.0 3.0 9.0 1.0 3.0 4.0 9.0 3.0 8.0 0.0 2.0 10.0 10.0 5.0 1.0 10.0 7.0 1.0 3.0 8.0 1.0 3.0 
0.0 9.0 9.0 3.0 10.0 3.0 1.0 2.0 8.0 6.0 6.0 8.0 4.0 8.0 6.0 10.0 0.0 8.0 5.0 9.0 7.0 1.0 3.0 3.0 3.0 1.0 6.0 7.0 -492.0 7.0 6.0 8.0 1.0 9.0 0.0 3.0 10.0 1.0 10.0 3.0 8.0 5.0 10.0 3.0 2.0 4.0 0.0 7.0 3.0 7.0 10.0 10.0 2.0 3.0 0.0 10.0 8.0 6.0 0.0 10.0 10.0 5.0 10.0 3.0 9.0 0.0 0.0 3.0 4.0 5.0 6.0 10.0 7.0 6.0 0.0 4.0 10.0 6.0 7.0 2.0 4.0 3.0 10.0 10.0 8.0 10.0 5.0 0.0 7.0 4.0 0.0 9.0 0.0 3.0 
5.0 10.0 10.0 1.0 7.0 5.0 9.0 4.0 10.0 6.0 6.0 5.0 9.0 6.0 10.0 10.0 8.0 4.0 7.0 6.0 1.0 8.0 1.0 7.0 6.0 10.0 0.0 7.0 7.0 -519.0 0.0 8.0 7.0 9.0 9.0 8.0 8.0 10.0 4.0 1.0 1.0 6.0 8.0 10.0 5.0 6.0 10.0 6.0 6.0 10.0 10.0 3.0 1.0 8.0 2.0 8.0 5.0 3.0 9.0 2.0 2.0 9.0 3.0 6.0 4.0 8.0 3.0 6.0 3.0 9.0 4.0 2.0 2.0 5.0 0.0 6.0 1.0 1.0 10.0 3.0 9.0 5.0 6.0 4.0 5.0 0.0 4.0 0.0 0.0 2.0 7.0 5.0 9.0 8.0 
7.0 7.0 0.0 4.0 0.0 7.0 1.0 10.0 2.0 3.0 1.0 0.0 3.0 2.0 9.0 4.0 9.0 3.0 3.0 9.0 0.0 5.0 0.0 6.0 9.0 8.0 1.0 3.0 6.0 0.0 -457.0 6.0 8.0 4.0 8.0 10.0 3.0 5.0 4.0 2.0 9.0 2.0 5.0 4.0 6.0 10.0 10.0 10.0 1.0 5.0 9.0 6.0 10.0 3.0 2.0 2.0 8.0 1.0 4.0 9.0 9.0 8.0 5.0 2.0 3.0 8.0 8.0 1.0 4.0 5.0 6.0 0.0 1.0 10.0 7.0 7.0 6.0 5.0 9.0 7.0 3.0 5.0 4.0 8.0 9.0 2.0 1.0 5.0 2.0 4.0 0.0 8.0 1.0 6.0 
7.0 7.0 3.0 6.0 7.0 8.0 10.0 7.0 1.0 9.0 5.0 1.0 1.0 10.0 8.0 9.0 2.0 8.0 10.0 4.0 5.0 4.0 7.0 8.0 10.0 7.0 3.0 8.0 8.0 8.0 6.0 -512.0 10.0 3.0 5.0 3.0 5.0 3.0 7.0 9.0 0.0 4.0 10.0 2.0 7.0 9.0 2.0 9.0 9.0 1.0 4.0 6.0 3.0 3.0 0.0 3.0 3.0 6.0 7.0 10.0 4.0 4.0 7.0 6.0 9.0 4.0 9.0 3.0 6.0 9.0 7.0 5.0 0.0 6.0 4.0 3.0 4.0 2.0 2.0 4.0 2.0 8.0 6.0 5.0 0.0 5.0 7.0 8.0 9.0 7.0 6.0 0.0 6.0 5.0 
8.0 6.0 0.0 2.0 0.0 5.0 4.0 8.0 1.0 5.0 7.0 9.0 5.0 6.0 9.0 9.0 10.0 7.0 2.0 0.0 6.0 10.0 9.0 1.0 9.0 3.0 1.0 5.0 1.0 7.0 8.0 10.0 -511.0 5.0 3.0 3.0 1.0 7.0 0.0 10.0 10.0 8.0 1.0 2.0 9.0 0.0 1.0 10.0 8.0 2.0 10.0 1.0 6.0 9.0 0.0 10.0 4.0 4.0 9.0 5.0 8.0 3.0 7.0 3.0 5.0 10.0 3.0 8.0 3.0 1.0 8.0 2.0 9.0 6.0 4.0 8.0 8.0 8.0 5.0 4.0 3.0 10.0 10.0 8.0 3.0 7.0 10.0 5.0 8.0 2.0 6.0 8.0 4.0 3.0 
9.0 10.0 3.0 2.0 1.0 3.0 8.0 1.0 2.0 4.0 10.0 5.0 6.0 9.0 5.0 3.0 8.0 3.0 5.0 2.0 3.0 3.0 2.0 1.0 7.0 7.0 7.0 10.0 9.0 9.0 4.0 3.0 5.0 -493.0 8.0 10.0 0.0 2.0 2.0 1.0 1.0 8.0 6.0 9.0 8.0 8.0 4.0 8.0 10.0 8.0 8.0 1.0 2.0 3.0 9.0 4.0 6.0 8.0 6.0 7.0 4.0 10.0 1.0 10.0 3.0 7.0 7.0 1.0 2.0 4.0 5.0 6.0 4.0 2.0 0.0 7.0 3.0 10.0 10.0 10.0 3.0 3.0 4.0 9.0 9.0 7.0 4.0 7.0 3.0 0.0 9.0 7.0 6.0 0.0 
7.0 3.0 8.0 2.0 6.0 8.0 8.0 6.0 6.0 2.0 7.0 4.0 5.0 8.0 8.0 1.0 3.0 5.0 6.0 1.0 7.0 7.0 4.0 5.0 10.0 0.0 7.0 8.0 0.0 9.0 8.0 5.0 3.0 8.0 -479.0 9.0 3.0 8.0 10.0 1.0 0.0 2.0 1.0 2.0 0.0 7.0 0.0 2.0 0.0 9.0 6.0 0.0 0.0 6.0 7.0 9.0 0.0 7.0 10.0 0.0 9.0 3.0 7.0 8.0 10.0 9.0 8.0 9.0 6.0 7.0 10.0 6.0 8.0 8.0 0.0 6.0 9.0 3.0 2.0 10.0 6.0 7.0 9.0 5.0 3.0 0.0 1.0 3.0 0.0 8.0 10.0 2.0 3.0 0.0 
8.0 3.0 2.0 1.0 8.0 1.0 9.0 7.0 7.0 9.0 10.0 9.0 5.0 6.0 10.0 0.0 6.0 2.0 5.0 9.0 1.0 10.0 0.0 7.0 6.0 3.0 8.0 3.0 3.0 8.0 10.0 3.0 3.0 10.0 9.0 -509.0 10.0 0.0 7.0 6.0 1.0 4.0 9.0 10.0 8.0 3.0 8.0 7.0 4.0 7.0 7.0 4.0 5.0 5.0 5.0 10.0 3.0 10.0 8.0 7.0 10.0 0.0 8.0 5.0 1.0 6.0 7.0 9.0 9.0 7.0 0.0 0.0 6.0 2.0 1.0 0.0 7.0 3.0 9.0 7.0 0.0 4.0 9.0 9.0 1.0 0.0 10.0 5.0 3.0 0.0 9.0 3.0 8.0 2.0 
5.0 1.0 7.0 6.0 7.0 3.0 10.0 3.0 6.0 8.0 10.0 0.0 8.0 9.0 4.0 10.0 8.0 7.0 1.0 4.0 2.0 6.0 9.0 4.0 6.0 0.0 8.0 3.0 10.0 8.0 3.0 5.0 1.0 0.0 3.0 10.0 -462.0 10.0 0.0 1.0 9.0 4.0 0.0 5.0 5.0 4.0 2.0 0.0 6.0 10.0 6.0 7.0 4.0 8.0 10.0 9.0 0.0 3.0 10.0 4.0 5.0 8.0 3.0 1.0 8.0 9.0 4.0 0.0 10.0 4.0 8.0 2.0 1.0 4.0 4.0 5.0 0.0 4.0 2.0 4.0 0.0 10.0 3.0 10.0 5.0 3.0 1.0 9.0 2.0 6.0 7.0 1.0 5.0 2.0 
9.0 2.0 1.0 2.0 6.0 0.0 3.0 0.0 3.0 9.0 2.0 4.0 8.0 9.0 9.0 0.0 8.0 9.0 8.0 1.0 3.0 0.0 0.0 3.0 5.0 0.0 1.0 1.0 1.0 10.0 5.0 3.0 7.0 2.0 8.0 0.0 10.0 -420.0 3.0 3.0 7.0 3.0 10.0 2.0 10.0 8.0 10.0 7.0 6.0 4.0 3.0 10.0 6.0 4.0 1.0 7.0 7.0 1.0 0.0 0.0 8.0 7.0 10.0 8.0 0.0 2.0 6.0 9.0 1.0 2.0 6.0 8.0 3.0 0.0 1.0 3.0 7.0 10.0 0.0 1.0 0.0 2.0 7.0 6.0 9.0 3.0 5.0 0.0 5.0 3.0 10.0 8.0 3.0 3.0 
9.0 9.0 4.0 6.0 2.0 8.0 10.0 5.0 1.0 2.0 7.0 8.0 2.0 4.0 4.0 9.0 2.0 10.0 0.0 2.0 5.0 10.0 4.0 1.0 7.0 9.0 1.0 3.0 10.0 4.0 4.0 7.0 0.0 2.0 10.0 7.0 0.0 3.0 -444.0 9.0 6.0 9.0 3.0 4.0 2.0 4.0 7.0 7.0 4.0 8.0 9.0 3.0 2.0 7.0 9.0 6.0 2.0 0.0 3.0 0.0 0.0 1.0 6.0 3.0 10.0 2.0 6.0 10.0 3.0 2.0 0.0 5.0 2.0 9.0 2.0 8.0 2.0 6.0 0.0 0.0 3.0 9.0 9.0 9.0 9.0 1.0 5.0 8.0 2.0 7.0 2.0 0.0 7.0 1.0 
10.0 6.0 10.0 2.0 8.0 4.0 5.0 2.0 1.0 6.0 4.0 8.0 10.0 8.0 8.0 8.0 5.0 1.0 7.0 3.0 9.0 4.0 6.0 7.0 9.0 0.0 4.0 6.0 3.0 1.0 2.0 9.0 10.0 1.0 1.0 6.0 1.0 3.0 9.0 -465.0 7.0 1.0 2.0 0.0 9.0 10.0 5.0 9.0 3.0 10.0 6.0 7.0 2.0 9.0 6.0 10.0 8.0 5.0 0.0 7.0 2.0 2.0 1.0 1.0 1.0 2.0 8.0 0.0 2.0 4.0 0.0 2.0 0.0 5.0 7.0 8.0 3.0 10.0 1.0 6.0 8.0 10.0 0.0 5.0 10.0 6.0 9.0 9.0 7.0 7.0 1.0 2.0 3.0 0.0 
2.0 4.0 7.0 1.0 5.0 10.0 6.0 4.0 5.0 0.0 0.0 7.0 4.0 1.0 9.0 4.0 0.0 8.0 5.0 9.0 10.0 6.0 10.0 7.0 0.0 3.0 3.0 5.0 8.0 1.0 9.0 0.0 10.0 1.0 0.0 1.0 9.0 7.0 6.0 7.0 -487.0 6.0 4.0 6.0 2.0 10.0 6.0 7.0 7.0 8.0 4.0 7.0 7.0 2.0 3.0 2.0 7.0 7.0 3.0 9.0 10.0 6.0 4.0 10.0 3.0 9.0 7.0 7.0 2.0 8.0 7.0 1.0 6.0 8.0 4.0 0.0 5.0 9.0 7.0 0.0 10.0 4.0 6.0 7.0 3.0 9.0 2.0 10.0 4.0 0.0 3.0 10.0 5.0 0.0 
7.0 1.0 3.0 5.0 5.0 8.0 8.0 9.0 10.0 6.0 4.0 3.0 10.0 4.0 0.0 8.0 9.0 0.0 2.0 2.0 9.0 6.0 3.0 9.0 2.0 2.0 6.0 10.0 5.0 6.0 2.0 4.0 8.0 8.0 2.0 4.0 4.0 3.0 9.0 1.0 6.0 -466.0 0.0 9.0 2.0 8.0 2.0 6.0 0.0 7.0 2.0 0.0 6.0 1.0 4.0 10.0 5.0 3.0 4.0 6.0 7.0 4.0 1.0 9.0 4.0 8.0 2.0 10.0 4.0 9.0 2.0 1.0 5.0 6.0 8.0 2.0 9.0 3.0 10.0 5.0 6.0 7.0 10.0 0.0 4.0 9.0 7.0 4.0 5.0 3.0 3.0 0.0 1.0 10.0 
9.0 8.0 5.0 5.0 1.0 3.0 2.0 1.0 1.0 6.0 3.0 1.0 8.0 9.0 4.0 8.0 7.0 3.0 3.0 5.0 1.0 8.0 7.0 10.0 8.0 2.0 0.0 10.0 10.0 8.0 5.0 10.0 1.0 6.0 1.0 9.0 0.0 10.0 3.0 2.0 4.0 0.0 -463.0 9.0 2.0 9.0 9.0 5.0 3.0 1.0 8.0 0.0 2.0 4.0 6.0 5.0 5.0 9.0 9.0 3.0 2.0 8.0 8.0 2.0 5.0 10.0 7.0 6.0 5.0 2.0 0.0 0.0 8.0 0.0 7.0 6.0 1.0 7.0 5.0 5.0 7.0 3.0 7.0 7.0 4.0 0.0 5.0 4.0 9.0 7.0 3.0 7.0 3.0 7.0 
5.0 4.0 7.0 2.0 2.0 8.0 8.0 4.0 2.0 10.0 1.0 8.0 7.0 5.0 2.0 0.0 0.0 8.0 1.0 7.0 7.0 9.0 10.0 5.0 10.0 4.0 1.0 8.0 3.0 10.0 4.0 2.0 2.0 9.0 2.0 10.0 5.0 2.0 4.0 0.0 6.0 9.0 9.0 -457.0 2.0 3.0 5.0 8.0 3.0 5.0 3.0 4.0 5.0 0.0 7.0 0.0 6.0 0.0 10.0 5.0 7.0 7.0 7.0 5.0 5.0 10.0 4.0 3.0 10.0 1.0 5.0 8.0 9.0 6.0 1.0 4.0 5.0 1.0 7.0 4.0 0.0 5.0 7.0 10.0 8.0 6.0 4.0 8.0 1.0 2.0 5.0 1.0 1.0 2.0 
1.0 10.0 9.0 4.0 7.0 6.0 2.0 3.0 6.0 10.0 10.0 3.0 10.0 9.0 10.0 9.0 0.0 5.0 5.0 8.0 8.0 4.0 9.0 0.0 9.0 4.0 3.0 10.0 2.0 5.0 6.0 7.0 9.0 8.0 0.0 8.0 5.0 10.0 2.0 9.0 2.0 2.0 2.0 2.0 -461.0 2.0 9.0 2.0 5.0 8.0 4.0 5.0 5.0 3.0 8.0 1.0 1.0 7.0 2.0 4.0 5.0 8.0 2.0 10.0 1.0 1.0 5.0 2.0 8.0 4.0 5.0 2.0 5.0 4.0 2.0 3.0 10.0 7.0 2.0 0.0 0.0 0.0 2.0 2.0 6.0 4.0 1.0 0.0 8.0 6.0 7.0 4.0 9.0 7.0 
10.0 8.0 3.0 1.0 10.0 3.0 5.0 8.0 4.0 7.0 2.0 5.0 3.0 9.0 1.0 3.0 5.0 9.0 2.0 2.0 5.0 4.0 1.0 6.0 6.0 9.0 6.0 5.0 4.0 6.0 10.0 9.0 0.0 8.0 7.0 3.0 4.0 8.0 4.0 10.0 10.0 8.0 9.0 3.0 2.0 -444.0 0.0 2.0 2.0 7.0 10.0 10.0 6.0 5.0 8.0 2.0 5.0 5.0 0.0 9.0 0.0 5.0 7.0 8.0 7.0 4.0 6.0 2.0 2.0 1.0 7.0 0.0 0.0 6.0 4.0 8.0 5.0 3.0 10.0 2.0 3.0 0.0 0.0 5.0 0.0 7.0 3.0 2.0 2.0 7.0 1.0 1.0 8.0 0.0 
6.0 9.0 0.0 1.0 4.0 7.0 8.0 9.0 8.0 2.0 6.0 3.0 1.0 7.0 1.0 5.0 1.0 7.0 4.0 0.0 7.0 4.0 9.0 0.0 6.0 10.0 3.0 4.0 0.0 10.0 10.0 2.0 1.0 4.0 0.0 8.0 2.0 10.0 7.0 5.0 6.0 2.0 9.0 5.0 9.0 0.0 -474.0 7.0 3.0 7.0 9.0 0.0 9.0 7.0 3.0 7.0 7.0 5.0 9.0 10.0 10.0 2.0 10.0 7.0 7.0 5.0 3.0 6.0 0.0 9.0 6.0 8.0 0.0 4.0 0.0 7.0 5.0 4.0 10.0 6.0 6.0 3.0 4.0 10.0 1.0 2.0 0.0 0.0 10.0 9.0 4.0 0.0 9.0 2.0 
5.0 4.0 7.0 1.0 6.0 3.0 6.0 0.0 8.0 2.0 0.0 3.0 7.0 5.0 10.0 7.0 8.0 8.0 5.0 9.0 3.0 0.0 9.0 7.0 3.0 10.0 7.0 4.0 7.0 6.0 10.0 9.0 10.0 8.0 2.0 7.0 0.0 7.0 7.0 9.0 7.0 6.0 5.0 8.0 2.0 2.0 7.0 -444.0 1.0 1.0 1.0 0.0 7.0 8.0 10.0 5.0 6.0 10.0 5.0 2.0 0.0 0.0 2.0 8.0 4.0 10.0 4.0 6.0 1.0 1.0 2.0 5.0 0.0 7.0 2.0 4.0 0.0 10.0 3.0 8.0 2.0 0.0 2.0 6.0 6.0 5.0 3.0 9.0 1.0 0.0 3.0 5.0 3.0 0.0 
4.0 9.0 5.0 2.0 0.0 10.0 0.0 2.0 1.0 0.0 2.0 0.0 5.0 7.0 4.0 3.0 7.0 2.0 2.0 5.0 9.0 10.0 3.0 8.0 9.0 7.0 10.0 1.0 3.0 6.0 1.0 9.0 8.0 10.0 0.0 4.0 6.0 6.0 4.0 3.0 7.0 0.0 3.0 3.0 5.0 2.0 3.0 1.0 -434.0 6.0 5.0 5.0 6.0 7.0 4.0 5.0 3.0 7.0 6.0 4.0 1.0 5.0 0.0 4.0 3.0 9.0 3.0 6.0 5.0 7.0 6.0 7.0 10.0 7.0 0.0 1.0 1.0 7.0 7.0 2.0 6.0 1.0 4.0 8.0 8.0 4.0 1.0 8.0 6.0 0.0 4.0 9.0 10.0 5.0 
7.0 9.0 8.0 6.0 3.0 5.0 8.0 4.0 5.0 8.0 0.0 0.0 6.0 9.0 4.0 7.0 9.0 10.0 2.0 7.0 4.0 9.0 0.0 2.0 9.0 8.0 1.0 9.0 7.0 10.0 5.0 1.0 2.0 8.0 9.0 7.0 10.0 4.0 8.0 10.0 8.0 7.0 1.0 5.0 8.0 7.0 7.0 1.0 6.0 -519.0 1.0 10.0 0.0 10.0 10.0 1.0 7.0 4.0 5.0 9.0 8.0 8.0 6.0 6.0 0.0 4.0 3.0 8.0 7.0 4.0 0.0 10.0 9.0 6.0 1.0 5.0 5.0 9.0 8.0 0.0 2.0 1.0 4.0 3.0 3.0 5.0 3.0 6.0 9.0 10.0 4.0 0.0 7.0 8.0 
0.0 9.0 10.0 5.0 6.0 5.0 8.0 8.0 1.0 2.0 7.0 2.0 6.0 4.0 8.0 10.0 1.0 7.0 10.0 10.0 9.0 3.0 9.0 6.0 2.0 3.0 7.0 0.0 10.0 10.0 9.0 4.0 10.0 8.0 6.0 7.0 6.0 3.0 9.0 6.0 4.0 2.0 8.0 3.0 4.0 10.0 9.0 1.0 5.0 1.0 -528.0 0.0 7.0 8.0 0.0 2.0 1.0 5.0 1.0 2.0 10.0 4.0 8.0 3.0 2.0 7.0 6.0 0.0 3.0 1.0 10.0 7.0 6.0 6.0 8.0 7.0 2.0 10.0 10.0 7.0 5.0 6.0 5.0 10.0 5.0 9.0 10.0 7.0 7.0 5.0 4.0 10.0 6.0 3.0 
7.0 4.0 3.0 6.0 0.0 3.0 10.0 3.0 7.0 6.0 2.0 2.0 3.0 7.0 9.0 8.0 2.0 1.0 10.0 1.0 8.0 4.0 10.0 10.0 3.0 1.0 0.0 2.0 10.0 3.0 6.0 6.0 1.0 1.0 0.0 4.0 7.0 10.0 3.0 7.0 7.0 0.0 0.0 4.0 5.0 10.0 0.0 0.0 5.0 10.0 0.0 -450.0 1.0 6.0 6.0 8.0 2.0 3.0 6.0 2.0 8.0 6.0 7.0 9.0 9.0 9.0 8.0 1.0 4.0 1.0 4.0 6.0 8.0 10.0 6.0 6.0 3.0 10.0 0.0 3.0 5.0 6.0 0.0 8.0 1.0 3.0 10.0 3.0 7.0 4.0 0.0 8.0 4.0 8.0 
3.0 6.0 5.0 10.0 2.0 6.0 8.0 4.0 5.0 4.0 4.0 2.0 1.0 2.0 4.0 5.0 4.0 4.0 4.0 5.0 1.0 6.0 4.0 6.0 10.0 2.0 3.0 6.0 2.0 1.0 10.0 3.0 6.0 2.0 0.0 5.0 4.0 6.0 2.0 2.0 7.0 6.0 2.0 5.0 5.0 6.0 9.0 7.0 6.0 0.0 7.0 1.0 -427.0 7.0 5.0 4.0 10.0 2.0 4.0 10.0 3.0 0.0 0.0 5.0 4.0 4.0 1.0 3.0 4.0 1.0 10.0 5.0 5.0 10.0 10.0 4.0 8.0 4.0 8.0 1.0 2.0 2.0 3.0 9.0 8.0 3.0 4.0 1.0 7.0 8.0 6.0 3.0 2.0 7.0 
7.0 7.0 9.0 0.0 2.0 3.0 7.0 8.0 9.0 4.0 5.0 7.0 10.0 2.0 2.0 5.0 2.0 7.0 10.0 2.0 1.0 10.0 9.0 9.0 8.0 10.0 1.0 10.0 3.0 8.0 3.0 3.0 9.0 3.0 6.0 5.0 8.0 4.0 7.0 9.0 2.0 1.0 4.0 0.0 3.0 5.0 7.0 8.0 7.0 10.0 8.0 6.0 7.0 -509.0 9.0 5.0 7.0 5.0 8.0 3.0 7.0 8.0 7.0 9.0 3.0 4.0 10.0 2.0 7.0 0.0 4.0 6.0 3.0 5.0 9.0 7.0 9.0 0.0 5.0 4.0 2.0 4.0 3.0 4.0 3.0 7.0 2.0 4.0 6.0 7.0 0.0 3.0 10.0 6.0 
7.0 4.0 3.0 10.0 1.0 5.0 4.0 10.0 5.0 5.0 2.0 1.0 7.0 3.0 3.0 5.0 10.0 6.0 9.0 6.0 6.0 10.0 7.0 6.0 3.0 9.0 7.0 8.0 0.0 2.0 2.0 0.0 0.0 9.0 7.0 5.0 10.0 1.0 9.0 6.0 3.0 4.0 6.0 7.0 8.0 8.0 3.0 10.0 4.0 10.0 0.0 6.0 5.0 9.0 -484.0 10.0 7.0 0.0 2.0 10.0 2.0 0.0 0.0 3.0 6.0 5.0 8.0 0.0 2.0 1.0 2.0 2.0 10.0 1.0 7.0 7.0 1.0 0.0 10.0 0.0 7.0 10.0 9.0 8.0 2.0 10.0 5.0 10.0 8.0 6.0 3.0 10.0 4.0 0.0 
6.0 10.0 9.0 2.0 5.0 4.0 8.0 3.0 1.0 5.0 8.0 5.0 6.0 0.0 7.0 0.0 9.0 8.0 5.0 5.0 2.0 7.0 1.0 2.0 1.0 1.0 4.0 5.0 10.0 8.0 2.0 3.0 10.0 4.0 9.0 10.0 9.0 7.0 6.0 10.0 2.0 10.0 5.0 0.0 1.0 2.0 7.0 5.0 5.0 1.0 2.0 8.0 4.0 5.0 10.0 -487.0 10.0 6.0 8.0 1.0 6.0 7.0 8.0 2.0 10.0 0.0 3.0 6.0 0.0 3.0 7.0 6.0 7.0 8.0 4.0 9.0 8.0 10.0 1.0 8.0 10.0 10.0 10.0 0.0 1.0 0.0 1.0 6.0 0.0 4.0 1.0 10.0 10.0 2.0 
7.0 9.0 9.0 6.0 8.0 7.0 6.0 7.0 2.0 1.0 10.0 8.0 5.0 1.0 4.0 9.0 2.0 4.0 1.0 10.0 2.0 0.0 9.0 0.0 4.0 5.0 5.0 2.0 8.0 5.0 8.0 3.0 4.0 6.0 0.0 3.0 0.0 7.0 2.0 8.0 7.0 5.0 5.0 6.0 1.0 5.0 7.0 6.0 3.0 7.0 1.0 2.0 10.0 7.0 7.0 10.0 -471.0 5.0 8.0 5.0 6.0 5.0 3.0 9.0 7.0 2.0 6.0 2.0 3.0 4.0 10.0 1.0 3.0 4.0 5.0 7.0 7.0 0.0 7.0 7.0 2.0 1.0 8.0 8.0 6.0 0.0 2.0 3.0 10.0 1.0 10.0 10.0 0.0 8.0 
10.0 8.0 2.0 1.0 9.0 4.0 8.0 10.0 1.0 8.0 6.0 0.0 7.0 0.0 5.0 1.0 9.0 0.0 5.0 4.0 2.0 0.0 6.0 6.0 1.0 9.0 6.0 10.0 6.0 3.0 1.0 6.0 4.0 8.0 7.0 10.0 3.0 1.0 0.0 5.0 7.0 3.0 9.0 0.0 7.0 5.0 5.0 10.0 7.0 4.0 5.0 3.0 2.0 5.0 0.0 6.0 5.0 -428.0 7.0 8.0 2.0 0.0 0.0 2.0 8.0 1.0 10.0 4.0 4.0 9.0 0.0 3.0 7.0 10.0 0.0 6.0 4.0 9.0 1.0 2.0 0.0 6.0 1.0 8.0 0.0 3.0 1.0 8.0 1.0 10.0 3.0 2.0 7.0 6.0 
4.0 1.0 4.0 0.0 1.0 8.0 0.0 8.0 6.0 7.0 10.0 3.0 6.0 2.0 8.0 2.0 3.0 2.0 10.0 2.0 0.0 5.0 2.0 6.0 4.0 2.0 6.0 6.0 0.0 9.0 4.0 7.0 9.0 6.0 10.0 8.0 10.0 0.0 3.0 0.0 3.0 4.0 9.0 10.0 2.0 0.0 9.0 5.0 6.0 5.0 1.0 6.0 4.0 8.0 2.0 8.0 8.0 7.0 -445.0 9.0 10.0 2.0 0.0 5.0 5.0 7.0 5.0 5.0 4.0 1.0 0.0 7.0 8.0 6.0 4.0 2.0 8.0 6.0 4.0 6.0 8.0 10.0 1.0 9.0 3.0 0.0 3.0 3.0 1.0 5.0 8.0 1.0 0.0 8.0 
0.0 2.0 6.0 0.0 10.0 5.0 6.0 0.0 10.0 2.0 4.0 1.0 7.0 9.0 7.0 3.0 4.0 4.0 5.0 8.0 0.0 1.0 2.0 3.0 0.0 5.0 0.0 1.0 10.0 2.0 9.0 10.0 5.0 7.0 0.0 7.0 4.0 0.0 0.0 7.0 9.0 6.0 3.0 5.0 4.0 9.0 10.0 2.0 4.0 9.0 2.0 2.0 10.0 3.0 10.0 1.0 5.0 8.0 9.0 -449.0 5.0 4.0 9.0 1.0 10.0 0.0 0.0 8.0 8.0 10.0 9.0 9.0 3.0 7.0 9.0 7.0 0.0 5.0 4.0 6.0 8.0 4.0 0.0 2.0 4.0 5.0 9.0 1.0 8.0 3.0 3.0 7.0 0.0 4.0 
1.0 5.0 10.0 3.0 1.0 6.0 9.0 5.0 1.0 7.0 3.0 0.0 8.0 6.0 4.0 0.0 3.0 9.0 6.0 6.0 6.0 2.0 6.0 6.0 5.0 6.0 2.0 7.0 10.0 2.0 9.0 4.0 8.0 4.0 9.0 10.0 5.0 8.0 0.0 2.0 10.0 7.0 2.0 7.0 5.0 0.0 10.0 0.0 1.0 8.0 10.0 8.0 3.0 7.0 2.0 6.0 6.0 2.0 10.0 5.0 -483.0 8.0 5.0 10.0 5.0 0.0 7.0 6.0 0.0 6.0 7.0 3.0 0.0 9.0 8.0 7.0 3.0 2.0 7.0 3.0 9.0 5.0 0.0 1.0 8.0 2.0 4.0 4.0 7.0 7.0 10.0 2.0 10.0 5.0 
1.0 1.0 6.0 5.0 7.0 3.0 8.0 5.0 7.0 0.0 3.0 6.0 0.0 4.0 9.0 5.0 6.0 6.0 3.0 4.0 3.0 9.0 0.0 8.0 1.0 3.0 9.0 10.0 5.0 9.0 8.0 4.0 3.0 10.0 3.0 0.0 8.0 7.0 1.0 2.0 6.0 4.0 8.0 7.0 8.0 5.0 2.0 0.0 5.0 8.0 4.0 6.0 0.0 8.0 0.0 7.0 5.0 0.0 2.0 4.0 8.0 -442.0 1.0 10.0 4.0 7.0 3.0 3.0 7.0 6.0 3.0 2.0 10.0 2.0 2.0 3.0 10.0 2.0 4.0 0.0 4.0 0.0 6.0 5.0 4.0 0.0 6.0 10.0 8.0 5.0 10.0 7.0 2.0 7.0 
3.0 1.0 9.0 2.0 5.0 5.0 1.0 8.0 6.0 5.0 5.0 4.0 3.0 6.0 8.0 1.0 1.0 4.0 5.0 0.0 5.0 0.0 8.0 4.0 10.0 10.0 0.0 6.0 10.0 3.0 5.0 7.0 7.0 1.0 7.0 8.0 3.0 10.0 6.0 1.0 4.0 1.0 8.0 7.0 2.0 7.0 10.0 2.0 0.0 6.0 8.0 7.0 0.0 7.0 0.0 8.0 3.0 0.0 0.0 9.0 5.0 1.0 -448.0 7.0 9.0 1.0 1.0 1.0 7.0 4.0 6.0 4.0 9.0 4.0 8.0 0.0 10.0 10.0 3.0 1.0 9.0 6.0 9.0 3.0 2.0 6.0 1.0 9.0 1.0 6.0 10.0 3.0 10.0 0.0 
7.0 2.0 6.0 7.0 1.0 8.0 10.0 6.0 7.0 1.0 4.0 10.0 6.0 6.0 8.0 3.0 10.0 0.0 1.0 2.0 0.0 4.0 4.0 0.0 8.0 4.0 4.0 4.0 3.0 6.0 2.0 6.0 3.0 10.0 8.0 5.0 1.0 8.0 3.0 1.0 10.0 9.0 2.0 5.0 10.0 8.0 7.0 8.0 4.0 6.0 3.0 9.0 5.0 9.0 3.0 2.0 9.0 2.0 5.0 1.0 10.0 10.0 7.0 -493.0 6.0 10.0 7.0 0.0 7.0 6.0 10.0 4.0 7.0 0.0 0.0 1.0 4.0 9.0 9.0 4.0 0.0 7.0 2.0 4.0 7.0 10.0 10.0 10.0 6.0 5.0 2.0 2.0 10.0 1.0 
10.0 3.0 10.0 3.0 3.0 6.0 8.0 5.0 4.0 9.0 6.0 8.0 4.0 0.0 6.0 6.0 1.0 3.0 7.0 10.0 8.0 4.0 0.0 7.0 7.0 2.0 9.0 10.0 9.0 4.0 3.0 9.0 5.0 3.0 10.0 1.0 8.0 0.0 10.0 1.0 3.0 4.0 5.0 5.0 1.0 7.0 7.0 4.0 3.0 0.0 2.0 9.0 4.0 3.0 6.0 10.0 7.0 8.0 5.0 10.0 5.0 4.0 9.0 6.0 -508.0 9.0 5.0 8.0 5.0 3.0 8.0 5.0 9.0 0.0 7.0 8.0 10.0 3.0 2.0 6.0 6.0 2.0 6.0 0.0 5.0 8.0 10.0 8.0 8.0 4.0 0.0 9.0 0.0 5.0 
7.0 1.0 6.0 7.0 8.0 9.0 8.0 8.0 7.0 0.0 2.0 7.0 5.0 1.0 10.0 9.0 10.0 5.0 5.0 4.0 8.0 6.0 0.0 0.0 8.0 8.0 10.0 5.0 0.0 8.0 8.0 4.0 10.0 7.0 9.0 6.0 9.0 2.0 2.0 2.0 9.0 8.0 10.0 10.0 1.0 4.0 5.0 10.0 9.0 4.0 7.0 9.0 4.0 4.0 5.0 0.0 2.0 1.0 7.0 0.0 0.0 7.0 1.0 10.0 9.0 -501.0 6.0 4.0 3.0 2.0 0.0 6.0 2.0 0.0 7.0 2.0 8.0 7.0 9.0 0.0 1.0 8.0 5.0 2.0 9.0 0.0 2.0 10.0 6.0 9.0 10.0 1.0 6.0 9.0 
0.0 1.0 0.0 2.0 2.0 8.0 5.0 7.0 10.0 1.0 4.0 3.0 6.0 0.0 8.0 0.0 4.0 9.0 4.0 9.0 0.0 5.0 6.0 10.0 5.0 2.0 4.0 6.0 0.0 3.0 8.0 9.0 3.0 7.0 8.0 7.0 4.0 6.0 6.0 8.0 7.0 2.0 7.0 4.0 5.0 6.0 3.0 4.0 3.0 3.0 6.0 8.0 1.0 10.0 8.0 3.0 6.0 10.0 5.0 0.0 7.0 3.0 1.0 7.0 5.0 6.0 -422.0 0.0 2.0 5.0 2.0 0.0 3.0 10.0 0.0 0.0 2.0 10.0 8.0 2.0 10.0 9.0 6.0 1.0 4.0 0.0 3.0 0.0 9.0 6.0 0.0 9.0 0.0 1.0 
9.0 10.0 8.0 2.0 1.0 6.0 0.0 10.0 8.0 5.0 9.0 0.0 0.0 9.0 2.0 6.0 0.0 7.0 8.0 9.0 10.0 8.0 7.0 10.0 8.0 10.0 2.0 7.0 3.0 6.0 1.0 3.0 8.0 1.0 9.0 9.0 0.0 9.0 10.0 0.0 7.0 10.0 6.0 3.0 2.0 2.0 6.0 6.0 6.0 8.0 0.0 1.0 3.0 2.0 0.0 6.0 2.0 4.0 5.0 8.0 6.0 3.0 1.0 0.0 8.0 4.0 0.0 -480.0 4.0 9.0 7.0 7.0 4.0 10.0 7.0 8.0 2.0 10.0 2.0 0.0 2.0 6.0 4.0 4.0 7.0 0.0 10.0 6.0 2.0 6.0 1.0 9.0 8.0 6.0 
0.0 7.0 10.0 8.0 0.0 10.0 2.0 7.0 6.0 10.0 2.0 0.0 0.0 8.0 5.0 3.0 8.0 5.0 6.0 7.0 6.0 3.0 3.0 7.0 10.0 4.0 8.0 1.0 4.0 3.0 4.0 6.0 3.0 2.0 6.0 9.0 10.0 1.0 3.0 2.0 2.0 4.0 5.0 10.0 8.0 2.0 0.0 1.0 5.0 7.0 3.0 4.0 4.0 7.0 2.0 0.0 3.0 4.0 4.0 8.0 0.0 7.0 7.0 7.0 5.0 3.0 2.0 4.0 -416.0 10.0 7.0 8.0 2.0 4.0 6.0 4.0 4.0 3.0 9.0 3.0 1.0 0.0 2.0 0.0 0.0 7.0 4.0 2.0 0.0 5.0 9.0 1.0 5.0 3.0 
1.0 3.0 9.0 9.0 5.0 7.0 6.0 4.0 7.0 3.0 3.0 10.0 9.0 2.0 5.0 0.0 5.0 7.0 5.0 6.0 8.0 10.0 10.0 1.0 6.0 6.0 10.0 9.0 5.0 9.0 5.0 9.0 1.0 4.0 7.0 7.0 4.0 2.0 2.0 4.0 8.0 9.0 2.0 1.0 4.0 1.0 9.0 1.0 7.0 4.0 1.0 1.0 1.0 0.0 1.0 3.0 4.0 9.0 1.0 10.0 6.0 6.0 4.0 6.0 3.0 2.0 5.0 9.0 10.0 -474.0 1.0 6.0 6.0 5.0 0.0 8.0 5.0 10.0 9.0 2.0 1.0 5.0 8.0 5.0 4.0 0.0 1.0 6.0 3.0 4.0 7.0 9.0 8.0 8.0 
10.0 9.0 10.0 5.0 8.0 10.0 8.0 3.0 8.0 8.0 5.0 5.0 2.0 6.0 6.0 2.0 4.0 9.0 10.0 7.0 4.0 5.0 3.0 7.0 10.0 4.0 8.0 8.0 6.0 4.0 6.0 7.0 8.0 5.0 10.0 0.0 8.0 6.0 0.0 0.0 7.0 2.0 0.0 5.0 5.0 7.0 6.0 2.0 6.0 0.0 10.0 4.0 10.0 4.0 2.0 7.0 10.0 0.0 0.0 9.0 7.0 3.0 6.0 10.0 8.0 0.0 2.0 7.0 7.0 1.0 -543.0 7.0 8.0 7.0 4.0 9.0 9.0 4.0 4.0 1.0 10.0 1.0 6.0 10.0 4.0 10.0 10.0 10.0 4.0 7.0 2.0 9.0 7.0 9.0 
0.0 5.0 10.0 5.0 9.0 7.0 1.0 5.0 6.0 3.0 10.0 6.0 3.0 10.0 9.0 4.0 7.0 3.0 3.0 2.0 7.0 4.0 5.0 3.0 3.0 0.0 1.0 5.0 10.0 2.0 0.0 5.0 2.0 6.0 6.0 0.0 2.0 8.0 5.0 2.0 1.0 1.0 0.0 8.0 2.0 0.0 8.0 5.0 7.0 10.0 7.0 6.0 5.0 6.0 2.0 6.0 1.0 3.0 7.0 9.0 3.0 2.0 4.0 4.0 5.0 6.0 0.0 7.0 8.0 6.0 7.0 -424.0 3.0 3.0 9.0 2.0 4.0 0.0 0.0 10.0 0.0 10.0 2.0 1.0 5.0 4.0 0.0 6.0 9.0 1.0 8.0 0.0 9.0 8.0 
1.0 9.0 3.0 7.0 8.0 0.0 5.0 10.0 9.0 9.0 4.0 5.0 5.0 3.0 10.0 7.0 0.0 9.0 10.0 8.0 6.0 5.0 4.0 10.0 5.0 6.0 9.0 8.0 7.0 2.0 1.0 0.0 9.0 4.0 8.0 6.0 1.0 3.0 2.0 0.0 6.0 5.0 8.0 9.0 5.0 0.0 0.0 0.0 10.0 9.0 6.0 8.0 5.0 3.0 10.0 7.0 3.0 7.0 8.0 3.0 0.0 10.0 9.0 7.0 9.0 2.0 3.0 4.0 2.0 6.0 8.0 3.0 -503.0 1.0 8.0 3.0 5.0 7.0 7.0 3.0 7.0 8.0 8.0 6.0 5.0 0.0 10.0 6.0 0.0 4.0 6.0 9.0 2.0 5.0 
5.0 3.0 1.0 5.0 2.0 1.0 7.0 10.0 1.0 5.0 2.0 5.0 7.0 8.0 4.0 4.0 9.0 9.0 6.0 3.0 8.0 0.0 6.0 9.0 10.0 10.0 4.0 3.0 6.0 5.0 10.0 6.0 6.0 2.0 8.0 2.0 4.0 0.0 9.0 5.0 8.0 6.0 0.0 6.0 4.0 6.0 4.0 7.0 7.0 6.0 6.0 10.0 10.0 5.0 1.0 8.0 4.0 10.0 6.0 7.0 9.0 2.0 4.0 0.0 0.0 0.0 10.0 10.0 4.0 5.0 7.0 3.0 1.0 -478.0 9.0 5.0 0.0 3.0 1.0 3.0 1.0 7.0 5.0 10.0 1.0 4.0 7.0 1.0 8.0 5.0 4.0 5.0 4.0 9.0 
1.0 4.0 8.0 4.0 5.0 4.0 3.0 10.0 4.0 4.0 5.0 4.0 8.0 5.0 4.0 2.0 4.0 7.0 3.0 0.0 4.0 5.0 4.0 10.0 6.0 8.0 1.0 9.0 0.0 0.0 7.0 4.0 4.0 0.0 0.0 1.0 4.0 1.0 2.0 7.0 4.0 8.0 7.0 1.0 2.0 4.0 0.0 2.0 0.0 1.0 8.0 6.0 10.0 9.0 7.0 4.0 5.0 0.0 4.0 9.0 8.0 2.0 8.0 0.0 7.0 7.0 0.0 7.0 6.0 0.0 4.0 9.0 8.0 9.0 -454.0 0.0 10.0 3.0 10.0 9.0 7.0 6.0 4.0 10.0 5.0 10.0 7.0 3.0 8.0 7.0 5.0 7.0 4.0 7.0 
5.0 8.0 7.0 1.0 3.0 7.0 10.0 1.0 9.0 1.0 9.0 2.0 3.0 1.0 0.0 0.0 3.0 2.0 6.0 9.0 6.0 3.0 8.0 3.0 7.0 6.0 6.0 1.0 4.0 6.0 7.0 3.0 8.0 7.0 6.0 0.0 5.0 3.0 8.0 8.0 0.0 2.0 6.0 4.0 3.0 8.0 7.0 4.0 1.0 5.0 7.0 6.0 4.0 7.0 7.0 9.0 7.0 6.0 2.0 7.0 7.0 3.0 0.0 1.0 8.0 2.0 0.0 8.0 4.0 8.0 9.0 2.0 3.0 5.0 0.0 -433.0 3.0 5.0 8.0 0.0 4.0 3.0 10.0 2.0 1.0 10.0 0.0 1.0 10.0 2.0 2.0 4.0 5.0 9.0 
2.0 2.0 10.0 0.0 1.0 0.0 4.0 9.0 4.0 1.0 8.0 6.0 8.0 4.0 10.0 0.0 5.0 2.0 1.0 4.0 0.0 0.0 7.0 7.0 9.0 7.0 5.0 3.0 10.0 1.0 6.0 4.0 8.0 3.0 9.0 7.0 0.0 7.0 2.0 3.0 5.0 9.0 1.0 5.0 10.0 5.0 5.0 0.0 1.0 5.0 2.0 3.0 8.0 9.0 1.0 8.0 7.0 4.0 8.0 0.0 3.0 10.0 10.0 4.0 10.0 8.0 2.0 2.0 4.0 5.0 9.0 4.0 5.0 0.0 10.0 3.0 -429.0 3.0 6.0 2.0 9.0 1.0 0.0 4.0 0.0 0.0 3.0 6.0 4.0 6.0 3.0 7.0 3.0 8.0 
0.0 2.0 5.0 9.0 4.0 7.0 3.0 4.0 9.0 2.0 8.0 2.0 3.0 3.0 0.0 6.0 0.0 1.0 5.0 3.0 4.0 1.0 0.0 3.0 5.0 1.0 8.0 4.0 6.0 1.0 5.0 2.0 8.0 10.0 3.0 3.0 4.0 10.0 6.0 10.0 9.0 3.0 7.0 1.0 7.0 3.0 4.0 10.0 7.0 9.0 10.0 10.0 4.0 0.0 0.0 10.0 0.0 9.0 6.0 5.0 2.0 2.0 10.0 9.0 3.0 7.0 10.0 10.0 3.0 10.0 4.0 0.0 7.0 3.0 3.0 5.0 3.0 -454.0 2.0 1.0 5.0 2.0 9.0 7.0 3.0 9.0 7.0 9.0 9.0 3.0 1.0 3.0 2.0 7.0 
6.0 6.0 10.0 10.0 6.0 5.0 2.0 0.0 0.0 4.0 9.0 10.0 0.0 10.0 7.0 9.0 7.0 3.0 3.0 7.0 0.0 1.0 2.0 10.0 9.0 7.0 3.0 9.0 7.0 10.0 9.0 2.0 5.0 10.0 2.0 9.0 2.0 0.0 0.0 1.0 7.0 10.0 5.0 7.0 2.0 10.0 10.0 3.0 7.0 8.0 10.0 0.0 8.0 5.0 10.0 1.0 7.0 1.0 4.0 4.0 7.0 4.0 3.0 9.0 2.0 9.0 8.0 2.0 9.0 9.0 4.0 0.0 7.0 1.0 10.0 8.0 6.0 2.0 -481.0 1.0 2.0 1.0 3.0 5.0 2.0 5.0 5.0 2.0 2.0 2.0 3.0 5.0 4.0 8.0 
6.0 10.0 2.0 9.0 3.0 7.0 5.0 2.0 2.0 3.0 0.0 1.0 1.0 5.0 6.0 4.0 5.0 6.0 6.0 9.0 9.0 2.0 0.0 7.0 10.0 1.0 10.0 3.0 2.0 3.0 7.0 4.0 4.0 10.0 10.0 7.0 4.0 1.0 0.0 6.0 0.0 5.0 5.0 4.0 0.0 2.0 6.0 8.0 2.0 0.0 7.0 3.0 1.0 4.0 0.0 8.0 7.0 2.0 6.0 6.0 3.0 0.0 1.0 4.0 6.0 0.0 2.0 0.0 3.0 2.0 1.0 10.0 3.0 3.0 9.0 0.0 2.0 1.0 1.0 -385.0 5.0 6.0 7.0 0.0 6.0 5.0 7.0 3.0 1.0 8.0 7.0 2.0 6.0 3.0 
2.0 2.0 6.0 3.0 5.0 9.0 2.0 4.0 6.0 2.0 8.0 2.0 8.0 9.0 8.0 0.0 4.0 4.0 1.0 3.0 4.0 2.0 3.0 10.0 4.0 9.0 1.0 8.0 4.0 9.0 3.0 2.0 3.0 3.0 6.0 0.0 0.0 0.0 3.0 8.0 10.0 6.0 7.0 0.0 0.0 3.0 6.0 2.0 6.0 2.0 5.0 5.0 2.0 2.0 7.0 10.0 2.0 0.0 8.0 8.0 9.0 4.0 9.0 0.0 6.0 1.0 10.0 2.0 1.0 1.0 10.0 0.0 7.0 1.0 7.0 4.0 9.0 5.0 2.0 5.0 -421.0 7.0 4.0 10.0 8.0 1.0 5.0 9.0 1.0 8.0 1.0 7.0 4.0 2.0 
9.0 10.0 5.0 5.0 2.0 5.0 10.0 4.0 7.0 4.0 4.0 7.0 2.0 2.0 4.0 1.0 6.0 6.0 7.0 4.0 1.0 6.0 7.0 3.0 7.0 2.0 8.0 0.0 3.0 5.0 5.0 8.0 10.0 3.0 7.0 4.0 10.0 2.0 9.0 10.0 4.0 7.0 3.0 5.0 0.0 0.0 3.0 0.0 1.0 1.0 6.0 6.0 2.0 4.0 10.0 10.0 1.0 6.0 10.0 4.0 5.0 0.0 6.0 7.0 2.0 8.0 9.0 6.0 0.0 5.0 1.0 10.0 8.0 7.0 6.0 3.0 1.0 2.0 1.0 6.0 7.0 -459.0 10.0 4.0 6.0 4.0 9.0 4.0 10.0 4.0 4.0 1.0 0.0 6.0 
8.0 3.0 7.0 0.0 9.0 0.0 4.0 7.0 0.0 2.0 8.0 7.0 1.0 7.0 0.0 4.0 6.0 1.0 8.0 10.0 7.0 1.0 9.0 2.0 9.0 10.0 9.0 2.0 10.0 6.0 4.0 6.0 10.0 4.0 9.0 9.0 3.0 7.0 9.0 0.0 6.0 10.0 7.0 7.0 2.0 0.0 4.0 2.0 4.0 4.0 5.0 0.0 3.0 3.0 9.0 10.0 8.0 1.0 1.0 0.0 0.0 6.0 9.0 2.0 6.0 5.0 6.0 4.0 2.0 8.0 6.0 2.0 8.0 5.0 4.0 10.0 0.0 9.0 3.0 7.0 4.0 10.0 -482.0 9.0 7.0 9.0 8.0 7.0 3.0 3.0 9.0 1.0 2.0 4.0 
3.0 4.0 7.0 2.0 5.0 2.0 5.0 6.0 6.0 1.0 5.0 5.0 9.0 1.0 9.0 0.0 9.0 0.0 2.0 2.0 7.0 6.0 7.0 8.0 2.0 3.0 4.0 10.0 10.0 4.0 8.0 5.0 8.0 9.0 5.0 9.0 10.0 6.0 9.0 5.0 7.0 0.0 7.0 10.0 2.0 5.0 10.0 6.0 8.0 3.0 10.0 8.0 9.0 4.0 8.0 0.0 8.0 8.0 9.0 2.0 1.0 5.0 3.0 4.0 0.0 2.0 1.0 4.0 0.0 5.0 10.0 1.0 6.0 10.0 10.0 2.0 4.0 7.0 5.0 0.0 10.0 4.0 9.0 -503.0 3.0 10.0 9.0 1.0 9.0 2.0 5.0 3.0 10.0 6.0 
2.0 3.0 7.0 6.0 0.0 4.0 2.0 8.0 4.0 0.0 4.0 5.0 4.0 5.0 6.0 4.0 8.0 2.0 3.0 0.0 8.0 3.0 10.0 7.0 6.0 2.0 3.0 10.0 8.0 5.0 9.0 0.0 3.0 9.0 3.0 1.0 5.0 9.0 9.0 10.0 3.0 4.0 4.0 8.0 6.0 0.0 1.0 6.0 8.0 3.0 5.0 1.0 8.0 3.0 2.0 1.0 6.0 0.0 3.0 4.0 8.0 4.0 2.0 7.0 5.0 9.0 4.0 7.0 0.0 4.0 4.0 5.0 5.0 1.0 5.0 1.0 0.0 3.0 2.0 6.0 8.0 6.0 7.0 3.0 -420.0 3.0 0.0 4.0 3.0 1.0 7.0 9.0 8.0 6.0 
1.0 7.0 1.0 1.0 2.0 10.0 8.0 10.0 0.0 9.0 7.0 10.0 6.0 1.0 7.0 4.0 3.0 9.0 6.0 7.0 1.0 6.0 7.0 4.0 8.0 1.0 5.0 5.0 10.0 0.0 2.0 5.0 7.0 7.0 0.0 0.0 3.0 3.0 1.0 6.0 9.0 9.0 0.0 6.0 4.0 7.0 2.0 5.0 4.0 5.0 9.0 3.0 3.0 7.0 10.0 0.0 0.0 3.0 0.0 5.0 2.0 0.0 6.0 10.0 8.0 0.0 0.0 0.0 7.0 0.0 10.0 4.0 0.0 4.0 10.0 10.0 0.0 9.0 5.0 5.0 1.0 4.0 9.0 10.0 3.0 -432.0 1.0 8.0 4.0 6.0 0.0 4.0 2.0 9.0 
4.0 7.0 8.0 10.0 5.0 4.0 7.0 6.0 8.0 0.0 3.0 5.0 8.0 8.0 3.0 9.0 3.0 10.0 1.0 4.0 3.0 1.0 6.0 0.0 9.0 6.0 0.0 1.0 5.0 4.0 1.0 7.0 10.0 4.0 1.0 10.0 1.0 5.0 5.0 9.0 2.0 7.0 5.0 4.0 1.0 3.0 0.0 3.0 1.0 3.0 10.0 10.0 4.0 2.0 5.0 1.0 2.0 1.0 3.0 9.0 4.0 6.0 1.0 10.0 10.0 2.0 3.0 10.0 4.0 1.0 10.0 0.0 10.0 7.0 7.0 0.0 3.0 7.0 5.0 7.0 5.0 9.0 8.0 9.0 0.0 1.0 -462.0 3.0 7.0 3.0 9.0 9.0 8.0 7.0 
0.0 2.0 7.0 2.0 10.0 8.0 7.0 0.0 4.0 10.0 2.0 9.0 1.0 7.0 3.0 9.0 2.0 5.0 3.0 10.0 8.0 2.0 8.0 6.0 4.0 1.0 5.0 10.0 0.0 0.0 5.0 8.0 5.0 7.0 3.0 5.0 9.0 0.0 8.0 9.0 10.0 4.0 4.0 8.0 0.0 2.0 0.0 9.0 8.0 6.0 7.0 3.0 1.0 4.0 10.0 6.0 3.0 8.0 3.0 1.0 4.0 10.0 9.0 10.0 8.0 10.0 0.0 6.0 2.0 6.0 10.0 6.0 6.0 1.0 3.0 1.0 6.0 9.0 2.0 3.0 9.0 4.0 7.0 1.0 4.0 8.0 3.0 -470.0 1.0 5.0 4.0 8.0 3.0 0.0 
3.0 0.0 9.0 2.0 10.0 10.0 10.0 2.0 5.0 3.0 6.0 6.0 4.0 1.0 6.0 4.0 8.0 6.0 4.0 2.0 0.0 4.0 2.0 2.0 6.0 5.0 9.0 7.0 7.0 0.0 2.0 9.0 8.0 3.0 0.0 3.0 2.0 5.0 2.0 7.0 4.0 5.0 9.0 1.0 8.0 2.0 10.0 1.0 6.0 9.0 7.0 7.0 7.0 6.0 8.0 0.0 10.0 1.0 1.0 8.0 7.0 8.0 1.0 6.0 8.0 6.0 9.0 2.0 0.0 3.0 4.0 9.0 0.0 8.0 8.0 10.0 4.0 9.0 2.0 1.0 1.0 10.0 3.0 9.0 3.0 4.0 7.0 1.0 -459.0 0.0 3.0 8.0 10.0 1.0 
4.0 0.0 1.0 9.0 3.0 8.0 10.0 0.0 10.0 3.0 1.0 2.0 1.0 7.0 2.0 7.0 10.0 4.0 5.0 3.0 7.0 6.0 0.0 4.0 4.0 10.0 0.0 1.0 4.0 2.0 4.0 7.0 2.0 0.0 8.0 0.0 6.0 3.0 7.0 7.0 0.0 3.0 7.0 2.0 6.0 7.0 9.0 0.0 0.0 10.0 5.0 4.0 8.0 7.0 6.0 4.0 1.0 10.0 5.0 3.0 7.0 5.0 6.0 5.0 4.0 9.0 6.0 6.0 5.0 4.0 7.0 1.0 4.0 5.0 7.0 2.0 6.0 3.0 2.0 8.0 8.0 4.0 3.0 2.0 1.0 6.0 3.0 5.0 0.0 -420.0 4.0 1.0 4.0 8.0 
9.0 0.0 8.0 7.0 1.0 4.0 5.0 6.0 3.0 4.0 5.0 3.0 10.0 9.0 10.0 6.0 9.0 5.0 3.0 6.0 1.0 1.0 7.0 3.0 8.0 0.0 10.0 3.0 0.0 7.0 0.0 6.0 6.0 9.0 10.0 9.0 7.0 10.0 2.0 1.0 3.0 3.0 3.0 5.0 7.0 1.0 4.0 3.0 4.0 4.0 4.0 0.0 6.0 0.0 3.0 1.0 10.0 3.0 8.0 3.0 10.0 10.0 10.0 2.0 0.0 10.0 0.0 1.0 9.0 7.0 2.0 8.0 6.0 4.0 5.0 2.0 3.0 1.0 3.0 7.0 1.0 4.0 9.0 5.0 7.0 0.0 9.0 4.0 3.0 4.0 -449.0 10.0 0.0 5.0 
7.0 0.0 6.0 2.0 7.0 5.0 3.0 5.0 2.0 2.0 5.0 6.0 1.0 1.0 8.0 3.0 2.0 10.0 2.0 2.0 0.0 8.0 4.0 4.0 2.0 3.0 0.0 8.0 9.0 5.0 8.0 0.0 8.0 7.0 2.0 3.0 1.0 8.0 0.0 2.0 10.0 0.0 7.0 1.0 4.0 1.0 0.0 5.0 9.0 0.0 10.0 8.0 3.0 3.0 10.0 10.0 10.0 2.0 1.0 7.0 2.0 7.0 3.0 2.0 9.0 1.0 9.0 9.0 1.0 9.0 9.0 0.0 9.0 5.0 7.0 4.0 7.0 3.0 5.0 2.0 7.0 1.0 1.0 3.0 9.0 4.0 9.0 8.0 8.0 1.0 10.0 -435.0 4.0 5.0 
5.0 0.0 3.0 3.0 6.0 8.0 9.0 5.0 2.0 7.0 3.0 5.0 5.0 2.0 0.0 1.0 1.0 8.0 6.0 3.0 7.0 10.0 10.0 2.0 2.0 7.0 10.0 1.0 0.0 9.0 1.0 6.0 4.0 6.0 3.0 8.0 5.0 3.0 7.0 3.0 5.0 1.0 3.0 1.0 9.0 8.0 9.0 3.0 10.0 7.0 6.0 4.0 2.0 10.0 4.0 10.0 0.0 7.0 0.0 0.0 10.0 2.0 10.0 10.0 0.0 6.0 0.0 8.0 5.0 8.0 7.0 9.0 2.0 4.0 4.0 5.0 3.0 2.0 4.0 6.0 4.0 0.0 2.0 10.0 8.0 2.0 8.0 3.0 10.0 4.0 0.0 4.0 -455.0 10.0 
7.0 0.0 2.0 10.0 8.0 7.0 8.0 0.0 1.0 4.0 6.0 3.0 1.0 0.0 9.0 10.0 6.0 5.0 0.0 6.0 3.0 10.0 0.0 9.0 0.0 10.0 8.0 3.0 3.0 8.0 6.0 5.0 3.0 0.0 0.0 2.0 2.0 3.0 1.0 0.0 0.0 10.0 7.0 2.0 7.0 0.0 2.0 0.0 5.0 8.0 3.0 8.0 7.0 6.0 0.0 2.0 8.0 6.0 8.0 4.0 5.0 7.0 0.0 1.0 5.0 9.0 1.0 6.0 3.0 8.0 9.0 8.0 5.0 9.0 7.0 9.0 8.0 7.0 8.0 3.0 2.0 6.0 4.0 6.0 6.0 9.0 7.0 0.0 1.0 8.0 5.0 5.0 10.0 -449.0 

